p cnf 966 2481
51 -699 -700 0
-51 699 0
-51 700 0
52 -51 -3 0
-52 51 0
-52 3 0
53 -701 -4 0
-53 701 0
-53 4 0
54 -53 -702 0
-54 53 0
-54 702 0
55 -703 -704 0
-55 703 0
-55 704 0
56 -8 -705 0
-56 8 0
-56 705 0
57 -56 -9 0
-57 56 0
-57 9 0
58 -706 -55 0
-58 706 0
-58 55 0
59 -707 -708 0
-59 707 0
-59 708 0
60 -59 -709 0
-60 59 0
-60 709 0
61 -710 -58 0
-61 710 0
-61 58 0
62 -711 -712 0
-62 711 0
-62 712 0
63 -62 -713 0
-63 62 0
-63 713 0
64 -714 -61 0
-64 714 0
-64 61 0
65 -715 -7 0
-65 715 0
-65 7 0
66 -65 -9 0
-66 65 0
-66 9 0
67 -716 -64 0
-67 716 0
-67 64 0
68 -15 -5 0
-68 15 0
-68 5 0
69 -68 -717 0
-69 68 0
-69 717 0
70 -718 -67 0
-70 718 0
-70 67 0
71 -719 -720 0
-71 719 0
-71 720 0
72 -71 -721 0
-72 71 0
-72 721 0
73 -722 -70 0
-73 722 0
-73 70 0
74 -723 -19 0
-74 723 0
-74 19 0
75 -74 -702 0
-75 74 0
-75 702 0
76 -724 -73 0
-76 724 0
-76 73 0
77 -21 -725 0
-77 21 0
-77 725 0
78 -77 -713 0
-78 77 0
-78 713 0
79 -726 -76 0
-79 726 0
-79 76 0
80 -22 -11 0
-80 22 0
-80 11 0
81 -80 -23 0
-81 80 0
-81 23 0
82 -727 -79 0
-82 727 0
-82 79 0
83 -15 -7 0
-83 15 0
-83 7 0
84 -83 -5 0
-84 83 0
-84 5 0
85 -728 -82 0
-85 728 0
-85 82 0
86 -729 -22 0
-86 729 0
-86 22 0
87 -86 -730 0
-87 86 0
-87 730 0
88 -731 -85 0
-88 731 0
-88 85 0
89 -732 -12 0
-89 732 0
-89 12 0
90 -89 -733 0
-90 89 0
-90 733 0
91 -734 -88 0
-91 734 0
-91 88 0
92 -735 -2 0
-92 735 0
-92 2 0
93 -92 -13 0
-93 92 0
-93 13 0
94 -736 -91 0
-94 736 0
-94 91 0
95 -29 -707 0
-95 29 0
-95 707 0
96 -95 -737 0
-96 95 0
-96 737 0
97 -738 -94 0
-97 738 0
-97 94 0
98 -739 -27 0
-98 739 0
-98 27 0
99 -98 -6 0
-99 98 0
-99 6 0
100 -740 -97 0
-100 740 0
-100 97 0
101 -741 -742 0
-101 741 0
-101 742 0
102 -101 -11 0
-102 101 0
-102 11 0
103 -743 -100 0
-103 743 0
-103 100 0
104 -33 -700 0
-104 33 0
-104 700 0
105 -104 -708 0
-105 104 0
-105 708 0
106 -744 -103 0
-106 744 0
-106 103 0
107 -745 -746 0
-107 745 0
-107 746 0
108 -107 -723 0
-108 107 0
-108 723 0
109 -747 -106 0
-109 747 0
-109 106 0
110 -36 -5 0
-110 36 0
-110 5 0
111 -110 -723 0
-111 110 0
-111 723 0
112 -748 -109 0
-112 748 0
-112 109 0
113 -32 -24 0
-113 32 0
-113 24 0
114 -113 -749 0
-114 113 0
-114 749 0
115 -750 -112 0
-115 750 0
-115 112 0
116 -751 -752 0
-116 751 0
-116 752 0
117 -116 -737 0
-117 116 0
-117 737 0
118 -753 -115 0
-118 753 0
-118 115 0
119 -8 -699 0
-119 8 0
-119 699 0
120 -119 -730 0
-120 119 0
-120 730 0
121 -754 -118 0
-121 754 0
-121 118 0
122 -755 -20 0
-122 755 0
-122 20 0
123 -122 -3 0
-123 122 0
-123 3 0
124 -756 -121 0
-124 756 0
-124 121 0
125 -757 -707 0
-125 757 0
-125 707 0
126 -125 -38 0
-126 125 0
-126 38 0
127 -758 -124 0
-127 758 0
-127 124 0
128 -40 -717 0
-128 40 0
-128 717 0
129 -128 -737 0
-129 128 0
-129 737 0
130 -759 -127 0
-130 759 0
-130 127 0
131 -760 -711 0
-131 760 0
-131 711 0
132 -131 -20 0
-132 131 0
-132 20 0
133 -761 -130 0
-133 761 0
-133 130 0
134 -20 -16 0
-134 20 0
-134 16 0
135 -134 -3 0
-135 134 0
-135 3 0
136 -762 -133 0
-136 762 0
-136 133 0
137 -749 -700 0
-137 749 0
-137 700 0
138 -137 -25 0
-138 137 0
-138 25 0
139 -763 -136 0
-139 763 0
-139 136 0
140 -739 -7 0
-140 739 0
-140 7 0
141 -140 -42 0
-141 140 0
-141 42 0
142 -764 -139 0
-142 764 0
-142 139 0
143 -22 -21 0
-143 22 0
-143 21 0
144 -143 -38 0
-144 143 0
-144 38 0
145 -765 -142 0
-145 765 0
-145 142 0
146 -766 -20 0
-146 766 0
-146 20 0
147 -146 -721 0
-147 146 0
-147 721 0
148 -767 -145 0
-148 767 0
-148 145 0
149 -22 -14 0
-149 22 0
-149 14 0
150 -149 -768 0
-150 149 0
-150 768 0
151 -769 -148 0
-151 769 0
-151 148 0
152 -35 -15 0
-152 35 0
-152 15 0
153 -152 -30 0
-153 152 0
-153 30 0
154 -770 -151 0
-154 770 0
-154 151 0
155 -768 -700 0
-155 768 0
-155 700 0
156 -155 -705 0
-156 155 0
-156 705 0
157 -771 -154 0
-157 771 0
-157 154 0
158 -772 -44 0
-158 772 0
-158 44 0
159 -158 -38 0
-159 158 0
-159 38 0
160 -773 -157 0
-160 773 0
-160 157 0
161 -741 -768 0
-161 741 0
-161 768 0
162 -161 -719 0
-162 161 0
-162 719 0
163 -774 -160 0
-163 774 0
-163 160 0
164 -719 -5 0
-164 719 0
-164 5 0
165 -164 -46 0
-165 164 0
-165 46 0
166 -775 -163 0
-166 775 0
-166 163 0
167 -746 -712 0
-167 746 0
-167 712 0
168 -167 -18 0
-168 167 0
-168 18 0
169 -776 -166 0
-169 776 0
-169 166 0
170 -39 -24 0
-170 39 0
-170 24 0
171 -170 -717 0
-171 170 0
-171 717 0
172 -777 -169 0
-172 777 0
-172 169 0
173 -778 -43 0
-173 778 0
-173 43 0
174 -173 -23 0
-174 173 0
-174 23 0
175 -779 -172 0
-175 779 0
-175 172 0
176 -780 -16 0
-176 780 0
-176 16 0
177 -176 -699 0
-177 176 0
-177 699 0
178 -781 -175 0
-178 781 0
-178 175 0
179 -782 -34 0
-179 782 0
-179 34 0
180 -179 -735 0
-180 179 0
-180 735 0
181 -783 -178 0
-181 783 0
-181 178 0
182 -39 -780 0
-182 39 0
-182 780 0
183 -182 -5 0
-183 182 0
-183 5 0
184 -784 -181 0
-184 784 0
-184 181 0
185 -44 -34 0
-185 44 0
-185 34 0
186 -185 -48 0
-186 185 0
-186 48 0
187 -785 -184 0
-187 785 0
-187 184 0
188 -786 -733 0
-188 786 0
-188 733 0
189 -188 -13 0
-189 188 0
-189 13 0
190 -787 -187 0
-190 787 0
-190 187 0
191 -701 -1 0
-191 701 0
-191 1 0
192 -191 -723 0
-192 191 0
-192 723 0
193 -788 -190 0
-193 788 0
-193 190 0
194 -789 -732 0
-194 789 0
-194 732 0
195 -194 -41 0
-195 194 0
-195 41 0
196 -790 -193 0
-196 790 0
-196 193 0
197 -768 -712 0
-197 768 0
-197 712 0
198 -197 -25 0
-198 197 0
-198 25 0
199 -791 -196 0
-199 791 0
-199 196 0
200 -792 -701 0
-200 792 0
-200 701 0
201 -200 -35 0
-201 200 0
-201 35 0
202 -793 -199 0
-202 793 0
-202 199 0
203 -772 -794 0
-203 772 0
-203 794 0
204 -203 -713 0
-204 203 0
-204 713 0
205 -795 -202 0
-205 795 0
-205 202 0
206 -22 -2 0
-206 22 0
-206 2 0
207 -206 -786 0
-207 206 0
-207 786 0
208 -796 -205 0
-208 796 0
-208 205 0
209 -760 -3 0
-209 760 0
-209 3 0
210 -209 -713 0
-210 209 0
-210 713 0
211 -797 -208 0
-211 797 0
-211 208 0
212 -760 -8 0
-212 760 0
-212 8 0
213 -212 -24 0
-213 212 0
-213 24 0
214 -798 -211 0
-214 798 0
-214 211 0
215 -778 -12 0
-215 778 0
-215 12 0
216 -215 -46 0
-216 215 0
-216 46 0
217 -799 -214 0
-217 799 0
-217 214 0
218 -46 -768 0
-218 46 0
-218 768 0
219 -218 -717 0
-219 218 0
-219 717 0
220 -800 -217 0
-220 800 0
-220 217 0
221 -757 -35 0
-221 757 0
-221 35 0
222 -221 -766 0
-222 221 0
-222 766 0
223 -801 -220 0
-223 801 0
-223 220 0
224 -22 -720 0
-224 22 0
-224 720 0
225 -224 -35 0
-225 224 0
-225 35 0
226 -802 -223 0
-226 802 0
-226 223 0
227 -26 -725 0
-227 26 0
-227 725 0
228 -227 -766 0
-228 227 0
-228 766 0
229 -803 -226 0
-229 803 0
-229 226 0
230 -768 -21 0
-230 768 0
-230 21 0
231 -230 -702 0
-231 230 0
-231 702 0
232 -804 -229 0
-232 804 0
-232 229 0
233 -203 -25 0
-233 203 0
-233 25 0
234 -805 -232 0
-234 805 0
-234 232 0
235 -749 -20 0
-235 749 0
-235 20 0
236 -235 -3 0
-236 235 0
-236 3 0
237 -806 -234 0
-237 806 0
-237 234 0
238 -807 -14 0
-238 807 0
-238 14 0
239 -238 -782 0
-239 238 0
-239 782 0
240 -808 -237 0
-240 808 0
-240 237 0
241 -789 -705 0
-241 789 0
-241 705 0
242 -241 -6 0
-242 241 0
-242 6 0
243 -809 -240 0
-243 809 0
-243 240 0
244 -12 -2 0
-244 12 0
-244 2 0
245 -244 -18 0
-245 244 0
-245 18 0
246 -810 -243 0
-246 810 0
-246 243 0
247 -720 -711 0
-247 720 0
-247 711 0
248 -247 -749 0
-248 247 0
-248 749 0
249 -811 -246 0
-249 811 0
-249 246 0
250 -746 -701 0
-250 746 0
-250 701 0
251 -250 -713 0
-251 250 0
-251 713 0
252 -812 -249 0
-252 812 0
-252 249 0
253 -50 -14 0
-253 50 0
-253 14 0
254 -253 -3 0
-254 253 0
-254 3 0
255 -813 -252 0
-255 813 0
-255 252 0
256 -766 -26 0
-256 766 0
-256 26 0
257 -256 -30 0
-257 256 0
-257 30 0
258 -814 -255 0
-258 814 0
-258 255 0
259 -30 -752 0
-259 30 0
-259 752 0
260 -259 -815 0
-260 259 0
-260 815 0
261 -816 -258 0
-261 816 0
-261 258 0
262 -733 -730 0
-262 733 0
-262 730 0
263 -262 -735 0
-263 262 0
-263 735 0
264 -817 -261 0
-264 817 0
-264 261 0
265 -732 -700 0
-265 732 0
-265 700 0
266 -265 -815 0
-266 265 0
-266 815 0
267 -818 -264 0
-267 818 0
-267 264 0
268 -26 -2 0
-268 26 0
-268 2 0
269 -268 -739 0
-269 268 0
-269 739 0
270 -819 -267 0
-270 819 0
-270 267 0
271 -772 -720 0
-271 772 0
-271 720 0
272 -271 -733 0
-272 271 0
-272 733 0
273 -820 -270 0
-273 820 0
-273 270 0
274 -733 -16 0
-274 733 0
-274 16 0
275 -274 -30 0
-275 274 0
-275 30 0
276 -821 -273 0
-276 821 0
-276 273 0
277 -49 -707 0
-277 49 0
-277 707 0
278 -277 -21 0
-278 277 0
-278 21 0
279 -822 -276 0
-279 822 0
-279 276 0
280 -45 -737 0
-280 45 0
-280 737 0
281 -280 -713 0
-281 280 0
-281 713 0
282 -823 -279 0
-282 823 0
-282 279 0
283 -49 -22 0
-283 49 0
-283 22 0
284 -283 -751 0
-284 283 0
-284 751 0
285 -824 -282 0
-285 824 0
-285 282 0
286 -709 -717 0
-286 709 0
-286 717 0
287 -286 -735 0
-287 286 0
-287 735 0
288 -825 -285 0
-288 825 0
-288 285 0
289 -792 -752 0
-289 792 0
-289 752 0
290 -289 -29 0
-290 289 0
-290 29 0
291 -826 -288 0
-291 826 0
-291 288 0
292 -39 -707 0
-292 39 0
-292 707 0
293 -292 -730 0
-293 292 0
-293 730 0
294 -827 -291 0
-294 827 0
-294 291 0
295 -751 -720 0
-295 751 0
-295 720 0
296 -295 -768 0
-296 295 0
-296 768 0
297 -828 -294 0
-297 828 0
-297 294 0
298 -751 -701 0
-298 751 0
-298 701 0
299 -298 -38 0
-299 298 0
-299 38 0
300 -829 -297 0
-300 829 0
-300 297 0
301 -768 -732 0
-301 768 0
-301 732 0
302 -301 -733 0
-302 301 0
-302 733 0
303 -830 -300 0
-303 830 0
-303 300 0
304 -33 -7 0
-304 33 0
-304 7 0
305 -304 -21 0
-305 304 0
-305 21 0
306 -831 -303 0
-306 831 0
-306 303 0
307 -741 -24 0
-307 741 0
-307 24 0
308 -307 -745 0
-308 307 0
-308 745 0
309 -832 -306 0
-309 832 0
-309 306 0
310 -789 -786 0
-310 789 0
-310 786 0
311 -310 -833 0
-311 310 0
-311 833 0
312 -834 -309 0
-312 834 0
-312 309 0
313 -50 -807 0
-313 50 0
-313 807 0
314 -313 -755 0
-314 313 0
-314 755 0
315 -835 -312 0
-315 835 0
-315 312 0
316 -21 -752 0
-316 21 0
-316 752 0
317 -316 -730 0
-317 316 0
-317 730 0
318 -836 -315 0
-318 836 0
-318 315 0
319 -41 -745 0
-319 41 0
-319 745 0
320 -319 -13 0
-320 319 0
-320 13 0
321 -837 -318 0
-321 837 0
-321 318 0
322 -31 -720 0
-322 31 0
-322 720 0
323 -322 -30 0
-323 322 0
-323 30 0
324 -838 -321 0
-324 838 0
-324 321 0
325 -746 -717 0
-325 746 0
-325 717 0
326 -325 -30 0
-326 325 0
-326 30 0
327 -839 -324 0
-327 839 0
-327 324 0
328 -755 -717 0
-328 755 0
-328 717 0
329 -328 -815 0
-329 328 0
-329 815 0
330 -840 -327 0
-330 840 0
-330 327 0
331 -757 -749 0
-331 757 0
-331 749 0
332 -331 -28 0
-332 331 0
-332 28 0
333 -841 -330 0
-333 841 0
-333 330 0
334 -786 -757 0
-334 786 0
-334 757 0
335 -334 -733 0
-335 334 0
-335 733 0
336 -842 -333 0
-336 842 0
-336 333 0
337 -766 -14 0
-337 766 0
-337 14 0
338 -337 -18 0
-338 337 0
-338 18 0
339 -843 -336 0
-339 843 0
-339 336 0
340 -729 -16 0
-340 729 0
-340 16 0
341 -340 -709 0
-341 340 0
-341 709 0
342 -844 -339 0
-342 844 0
-342 339 0
343 -50 -45 0
-343 50 0
-343 45 0
344 -343 -735 0
-344 343 0
-344 735 0
345 -845 -342 0
-345 845 0
-345 342 0
346 -749 -5 0
-346 749 0
-346 5 0
347 -346 -43 0
-347 346 0
-347 43 0
348 -846 -345 0
-348 846 0
-348 345 0
349 -745 -31 0
-349 745 0
-349 31 0
350 -349 -709 0
-350 349 0
-350 709 0
351 -847 -348 0
-351 847 0
-351 348 0
352 -789 -11 0
-352 789 0
-352 11 0
353 -352 -702 0
-353 352 0
-353 702 0
354 -848 -351 0
-354 848 0
-354 351 0
355 -778 -34 0
-355 778 0
-355 34 0
356 -355 -46 0
-356 355 0
-356 46 0
357 -849 -354 0
-357 849 0
-357 354 0
358 -34 -4 0
-358 34 0
-358 4 0
359 -358 -6 0
-359 358 0
-359 6 0
360 -850 -357 0
-360 850 0
-360 357 0
361 -41 -26 0
-361 41 0
-361 26 0
362 -361 -766 0
-362 361 0
-362 766 0
363 -851 -360 0
-363 851 0
-363 360 0
364 -708 -699 0
-364 708 0
-364 699 0
365 -364 -18 0
-365 364 0
-365 18 0
366 -852 -363 0
-366 852 0
-366 363 0
367 -729 -720 0
-367 729 0
-367 720 0
368 -367 -853 0
-368 367 0
-368 853 0
369 -854 -366 0
-369 854 0
-369 366 0
370 -725 -711 0
-370 725 0
-370 711 0
371 -370 -708 0
-371 370 0
-371 708 0
372 -855 -369 0
-372 855 0
-372 369 0
373 -719 -4 0
-373 719 0
-373 4 0
374 -373 -38 0
-374 373 0
-374 38 0
375 -856 -372 0
-375 856 0
-375 372 0
376 -4 -2 0
-376 4 0
-376 2 0
377 -376 -40 0
-377 376 0
-377 40 0
378 -857 -375 0
-378 857 0
-378 375 0
379 -789 -32 0
-379 789 0
-379 32 0
380 -379 -16 0
-380 379 0
-380 16 0
381 -858 -378 0
-381 858 0
-381 378 0
382 -221 -723 0
-382 221 0
-382 723 0
383 -859 -381 0
-383 859 0
-383 381 0
384 -720 -7 0
-384 720 0
-384 7 0
385 -384 -35 0
-385 384 0
-385 35 0
386 -860 -383 0
-386 860 0
-386 383 0
387 -751 -11 0
-387 751 0
-387 11 0
388 -387 -833 0
-388 387 0
-388 833 0
389 -861 -386 0
-389 861 0
-389 386 0
390 -39 -723 0
-390 39 0
-390 723 0
391 -390 -30 0
-391 390 0
-391 30 0
392 -862 -389 0
-392 862 0
-392 389 0
393 -35 -17 0
-393 35 0
-393 17 0
394 -393 -37 0
-394 393 0
-394 37 0
395 -863 -392 0
-395 863 0
-395 392 0
396 -39 -729 0
-396 39 0
-396 729 0
397 -396 -786 0
-397 396 0
-397 786 0
398 -864 -395 0
-398 864 0
-398 395 0
399 -766 -708 0
-399 766 0
-399 708 0
400 -399 -737 0
-400 399 0
-400 737 0
401 -865 -398 0
-401 865 0
-401 398 0
402 -25 -742 0
-402 25 0
-402 742 0
403 -402 -23 0
-403 402 0
-403 23 0
404 -866 -401 0
-404 866 0
-404 401 0
405 -757 -755 0
-405 757 0
-405 755 0
406 -405 -782 0
-406 405 0
-406 782 0
407 -867 -404 0
-407 867 0
-407 404 0
408 -732 -4 0
-408 732 0
-408 4 0
409 -408 -31 0
-409 408 0
-409 31 0
410 -868 -407 0
-410 868 0
-410 407 0
411 -20 -4 0
-411 20 0
-411 4 0
412 -411 -730 0
-412 411 0
-412 730 0
413 -869 -410 0
-413 869 0
-413 410 0
414 -21 -2 0
-414 21 0
-414 2 0
415 -414 -37 0
-415 414 0
-415 37 0
416 -870 -413 0
-416 870 0
-416 413 0
417 -766 -712 0
-417 766 0
-417 712 0
418 -417 -28 0
-418 417 0
-418 28 0
419 -871 -416 0
-419 871 0
-419 416 0
420 -745 -24 0
-420 745 0
-420 24 0
421 -420 -766 0
-421 420 0
-421 766 0
422 -872 -419 0
-422 872 0
-422 419 0
423 -751 -15 0
-423 751 0
-423 15 0
424 -423 -27 0
-424 423 0
-424 27 0
425 -873 -422 0
-425 873 0
-425 422 0
426 -68 -709 0
-426 68 0
-426 709 0
427 -874 -425 0
-427 874 0
-427 425 0
428 -19 -1 0
-428 19 0
-428 1 0
429 -428 -786 0
-429 428 0
-429 786 0
430 -875 -427 0
-430 875 0
-430 427 0
431 -12 -700 0
-431 12 0
-431 700 0
432 -431 -876 0
-432 431 0
-432 876 0
433 -877 -430 0
-433 877 0
-433 430 0
434 -853 -7 0
-434 853 0
-434 7 0
435 -434 -3 0
-435 434 0
-435 3 0
436 -878 -433 0
-436 878 0
-436 433 0
437 -9 -742 0
-437 9 0
-437 742 0
438 -437 -3 0
-438 437 0
-438 3 0
439 -879 -436 0
-439 879 0
-439 436 0
440 -760 -16 0
-440 760 0
-440 16 0
441 -440 -768 0
-441 440 0
-441 768 0
442 -880 -439 0
-442 880 0
-442 439 0
443 -778 -32 0
-443 778 0
-443 32 0
444 -443 -719 0
-444 443 0
-444 719 0
445 -881 -442 0
-445 881 0
-445 442 0
446 -140 -17 0
-446 140 0
-446 17 0
447 -882 -445 0
-447 882 0
-447 445 0
448 -786 -5 0
-448 786 0
-448 5 0
449 -448 -713 0
-449 448 0
-449 713 0
450 -883 -447 0
-450 883 0
-450 447 0
451 -48 -709 0
-451 48 0
-451 709 0
452 -451 -23 0
-452 451 0
-452 23 0
453 -884 -450 0
-453 884 0
-453 450 0
454 -34 -21 0
-454 34 0
-454 21 0
455 -454 -28 0
-455 454 0
-455 28 0
456 -885 -453 0
-456 885 0
-456 453 0
457 -782 -717 0
-457 782 0
-457 717 0
458 -457 -30 0
-458 457 0
-458 30 0
459 -886 -456 0
-459 886 0
-459 456 0
460 -720 -5 0
-460 720 0
-460 5 0
461 -460 -9 0
-461 460 0
-461 9 0
462 -887 -459 0
-462 887 0
-462 459 0
463 -42 -11 0
-463 42 0
-463 11 0
464 -463 -23 0
-464 463 0
-464 23 0
465 -888 -462 0
-465 888 0
-465 462 0
466 -723 -705 0
-466 723 0
-466 705 0
467 -466 -30 0
-467 466 0
-467 30 0
468 -889 -465 0
-468 889 0
-468 465 0
469 -16 -708 0
-469 16 0
-469 708 0
470 -469 -730 0
-470 469 0
-470 730 0
471 -890 -468 0
-471 890 0
-471 468 0
472 -752 -720 0
-472 752 0
-472 720 0
473 -472 -46 0
-473 472 0
-473 46 0
474 -891 -471 0
-474 891 0
-474 471 0
475 -19 -10 0
-475 19 0
-475 10 0
476 -475 -739 0
-476 475 0
-476 739 0
477 -892 -474 0
-477 892 0
-477 474 0
478 -757 -1 0
-478 757 0
-478 1 0
479 -478 -20 0
-479 478 0
-479 20 0
480 -893 -477 0
-480 893 0
-480 477 0
481 -9 -8 0
-481 9 0
-481 8 0
482 -481 -35 0
-482 481 0
-482 35 0
483 -894 -480 0
-483 894 0
-483 480 0
484 -49 -4 0
-484 49 0
-484 4 0
485 -484 -786 0
-485 484 0
-485 786 0
486 -895 -483 0
-486 895 0
-486 483 0
487 -792 -741 0
-487 792 0
-487 741 0
488 -487 -705 0
-488 487 0
-488 705 0
489 -896 -486 0
-489 896 0
-489 486 0
490 -708 -8 0
-490 708 0
-490 8 0
491 -490 -833 0
-491 490 0
-491 833 0
492 -897 -489 0
-492 897 0
-492 489 0
493 -739 -15 0
-493 739 0
-493 15 0
494 -493 -17 0
-494 493 0
-494 17 0
495 -898 -492 0
-495 898 0
-495 492 0
496 -45 -39 0
-496 45 0
-496 39 0
497 -496 -702 0
-497 496 0
-497 702 0
498 -899 -495 0
-498 899 0
-498 495 0
499 -26 -700 0
-499 26 0
-499 700 0
500 -499 -720 0
-500 499 0
-500 720 0
501 -900 -498 0
-501 900 0
-501 498 0
502 -50 -32 0
-502 50 0
-502 32 0
503 -502 -721 0
-503 502 0
-503 721 0
504 -901 -501 0
-504 901 0
-504 501 0
505 -20 -17 0
-505 20 0
-505 17 0
506 -505 -30 0
-506 505 0
-506 30 0
507 -902 -504 0
-507 902 0
-507 504 0
508 -32 -18 0
-508 32 0
-508 18 0
509 -508 -737 0
-509 508 0
-509 737 0
510 -903 -507 0
-510 903 0
-510 507 0
511 -721 -719 0
-511 721 0
-511 719 0
512 -511 -28 0
-512 511 0
-512 28 0
513 -904 -510 0
-513 904 0
-513 510 0
514 -46 -38 0
-514 46 0
-514 38 0
515 -514 -28 0
-515 514 0
-515 28 0
516 -905 -513 0
-516 905 0
-516 513 0
517 -45 -36 0
-517 45 0
-517 36 0
518 -517 -6 0
-518 517 0
-518 6 0
519 -906 -516 0
-519 906 0
-519 516 0
520 -876 -768 0
-520 876 0
-520 768 0
521 -520 -733 0
-521 520 0
-521 733 0
522 -907 -519 0
-522 907 0
-522 519 0
523 -34 -742 0
-523 34 0
-523 742 0
524 -523 -760 0
-524 523 0
-524 760 0
525 -908 -522 0
-525 908 0
-525 522 0
526 -50 -741 0
-526 50 0
-526 741 0
527 -526 -43 0
-527 526 0
-527 43 0
528 -909 -525 0
-528 909 0
-528 525 0
529 -15 -705 0
-529 15 0
-529 705 0
530 -529 -37 0
-530 529 0
-530 37 0
531 -910 -528 0
-531 910 0
-531 528 0
532 -22 -721 0
-532 22 0
-532 721 0
533 -532 -28 0
-533 532 0
-533 28 0
534 -911 -531 0
-534 911 0
-534 531 0
535 -786 -749 0
-535 786 0
-535 749 0
536 -535 -40 0
-536 535 0
-536 40 0
537 -912 -534 0
-537 912 0
-537 534 0
538 -794 -7 0
-538 794 0
-538 7 0
539 -538 -815 0
-539 538 0
-539 815 0
540 -913 -537 0
-540 913 0
-540 537 0
541 -310 -815 0
-541 310 0
-541 815 0
542 -914 -540 0
-542 914 0
-542 540 0
543 -786 -8 0
-543 786 0
-543 8 0
544 -543 -782 0
-544 543 0
-544 782 0
545 -915 -542 0
-545 915 0
-545 542 0
546 -739 -720 0
-546 739 0
-546 720 0
547 -546 -705 0
-547 546 0
-547 705 0
548 -916 -545 0
-548 916 0
-548 545 0
549 -48 -778 0
-549 48 0
-549 778 0
550 -549 -709 0
-550 549 0
-550 709 0
551 -917 -548 0
-551 917 0
-551 548 0
552 -789 -768 0
-552 789 0
-552 768 0
553 -552 -705 0
-553 552 0
-553 705 0
554 -918 -551 0
-554 918 0
-554 551 0
555 -794 -35 0
-555 794 0
-555 35 0
556 -555 -735 0
-556 555 0
-556 735 0
557 -919 -554 0
-557 919 0
-557 554 0
558 -853 -723 0
-558 853 0
-558 723 0
559 -558 -815 0
-559 558 0
-559 815 0
560 -920 -557 0
-560 920 0
-560 557 0
561 -50 -715 0
-561 50 0
-561 715 0
562 -561 -45 0
-562 561 0
-562 45 0
563 -921 -560 0
-563 921 0
-563 560 0
564 -789 -772 0
-564 789 0
-564 772 0
565 -564 -28 0
-565 564 0
-565 28 0
566 -922 -563 0
-566 922 0
-566 563 0
567 -794 -9 0
-567 794 0
-567 9 0
568 -567 -46 0
-568 567 0
-568 46 0
569 -923 -566 0
-569 923 0
-569 566 0
570 -39 -807 0
-570 39 0
-570 807 0
571 -570 -815 0
-571 570 0
-571 815 0
572 -924 -569 0
-572 924 0
-572 569 0
573 -751 -24 0
-573 751 0
-573 24 0
574 -573 -38 0
-574 573 0
-574 38 0
575 -925 -572 0
-575 925 0
-575 572 0
576 -705 -1 0
-576 705 0
-576 1 0
577 -576 -717 0
-577 576 0
-577 717 0
578 -926 -575 0
-578 926 0
-578 575 0
579 -778 -7 0
-579 778 0
-579 7 0
580 -579 -42 0
-580 579 0
-580 42 0
581 -927 -578 0
-581 927 0
-581 578 0
582 -38 -700 0
-582 38 0
-582 700 0
583 -582 -25 0
-583 582 0
-583 25 0
584 -928 -581 0
-584 928 0
-584 581 0
585 -36 -12 0
-585 36 0
-585 12 0
586 -585 -735 0
-586 585 0
-586 735 0
587 -929 -584 0
-587 929 0
-587 584 0
588 -33 -11 0
-588 33 0
-588 11 0
589 -588 -18 0
-589 588 0
-589 18 0
590 -930 -587 0
-590 930 0
-590 587 0
591 -44 -725 0
-591 44 0
-591 725 0
592 -591 -715 0
-592 591 0
-592 715 0
593 -931 -590 0
-593 931 0
-593 590 0
594 -29 -5 0
-594 29 0
-594 5 0
595 -594 -42 0
-595 594 0
-595 42 0
596 -932 -593 0
-596 932 0
-596 593 0
597 -757 -33 0
-597 757 0
-597 33 0
598 -597 -50 0
-598 597 0
-598 50 0
599 -933 -596 0
-599 933 0
-599 596 0
600 -876 -15 0
-600 876 0
-600 15 0
601 -600 -18 0
-601 600 0
-601 18 0
602 -934 -599 0
-602 934 0
-602 599 0
603 -729 -712 0
-603 729 0
-603 712 0
604 -603 -3 0
-604 603 0
-604 3 0
605 -935 -602 0
-605 935 0
-605 602 0
606 -792 -719 0
-606 792 0
-606 719 0
607 -606 -46 0
-607 606 0
-607 46 0
608 -936 -605 0
-608 936 0
-608 605 0
609 -36 -699 0
-609 36 0
-609 699 0
610 -609 -723 0
-610 609 0
-610 723 0
611 -937 -608 0
-611 937 0
-611 608 0
612 -48 -41 0
-612 48 0
-612 41 0
613 -612 -30 0
-613 612 0
-613 30 0
614 -938 -611 0
-614 938 0
-614 611 0
615 -876 -789 0
-615 876 0
-615 789 0
616 -615 -27 0
-616 615 0
-616 27 0
617 -939 -614 0
-617 939 0
-617 614 0
618 -14 -8 0
-618 14 0
-618 8 0
619 -618 -815 0
-619 618 0
-619 815 0
620 -940 -617 0
-620 940 0
-620 617 0
621 -16 -1 0
-621 16 0
-621 1 0
622 -621 -40 0
-622 621 0
-622 40 0
623 -941 -620 0
-623 941 0
-623 620 0
624 -876 -760 0
-624 876 0
-624 760 0
625 -624 -702 0
-625 624 0
-625 702 0
626 -942 -623 0
-626 942 0
-626 623 0
627 -794 -12 0
-627 794 0
-627 12 0
628 -627 -730 0
-628 627 0
-628 730 0
629 -943 -626 0
-629 943 0
-629 626 0
630 -17 -5 0
-630 17 0
-630 5 0
631 -630 -30 0
-631 630 0
-631 30 0
632 -944 -629 0
-632 944 0
-632 629 0
633 -792 -720 0
-633 792 0
-633 720 0
634 -633 -733 0
-634 633 0
-634 733 0
635 -945 -632 0
-635 945 0
-635 632 0
636 -729 -719 0
-636 729 0
-636 719 0
637 -636 -733 0
-637 636 0
-637 733 0
638 -946 -635 0
-638 946 0
-638 635 0
639 -29 -14 0
-639 29 0
-639 14 0
640 -639 -807 0
-640 639 0
-640 807 0
641 -947 -638 0
-641 947 0
-641 638 0
642 -45 -10 0
-642 45 0
-642 10 0
643 -642 -18 0
-643 642 0
-643 18 0
644 -948 -641 0
-644 948 0
-644 641 0
645 -752 -715 0
-645 752 0
-645 715 0
646 -645 -43 0
-646 645 0
-646 43 0
647 -949 -644 0
-647 949 0
-647 644 0
648 -50 -717 0
-648 50 0
-648 717 0
649 -648 -6 0
-649 648 0
-649 6 0
650 -950 -647 0
-650 950 0
-650 647 0
651 -757 -21 0
-651 757 0
-651 21 0
652 -651 -833 0
-652 651 0
-652 833 0
653 -951 -650 0
-653 951 0
-653 650 0
654 -745 -29 0
-654 745 0
-654 29 0
655 -654 -709 0
-655 654 0
-655 709 0
656 -952 -653 0
-656 952 0
-656 653 0
657 -752 -12 0
-657 752 0
-657 12 0
658 -657 -757 0
-658 657 0
-658 757 0
659 -953 -656 0
-659 953 0
-659 656 0
660 -22 -16 0
-660 22 0
-660 16 0
661 -660 -2 0
-661 660 0
-661 2 0
662 -954 -659 0
-662 954 0
-662 659 0
663 -46 -752 0
-663 46 0
-663 752 0
664 -663 -48 0
-664 663 0
-664 48 0
665 -955 -662 0
-665 955 0
-665 662 0
666 -31 -699 0
-666 31 0
-666 699 0
667 -666 -701 0
-667 666 0
-667 701 0
668 -956 -665 0
-668 956 0
-668 665 0
669 -876 -807 0
-669 876 0
-669 807 0
670 -669 -853 0
-670 669 0
-670 853 0
671 -957 -668 0
-671 957 0
-671 668 0
672 -7 -2 0
-672 7 0
-672 2 0
673 -672 -5 0
-673 672 0
-673 5 0
674 -958 -671 0
-674 958 0
-674 671 0
675 -19 -709 0
-675 19 0
-675 709 0
676 -675 -6 0
-676 675 0
-676 6 0
677 -959 -674 0
-677 959 0
-677 674 0
678 -14 -705 0
-678 14 0
-678 705 0
679 -678 -48 0
-679 678 0
-679 48 0
680 -960 -677 0
-680 960 0
-680 677 0
681 -778 -31 0
-681 778 0
-681 31 0
682 -681 -50 0
-682 681 0
-682 50 0
683 -961 -680 0
-683 961 0
-683 680 0
684 -41 -36 0
-684 41 0
-684 36 0
685 -684 -10 0
-685 684 0
-685 10 0
686 -962 -683 0
-686 962 0
-686 683 0
687 -30 -26 0
-687 30 0
-687 26 0
688 -687 -735 0
-688 687 0
-688 735 0
689 -963 -686 0
-689 963 0
-689 686 0
690 -711 -4 0
-690 711 0
-690 4 0
691 -690 -9 0
-691 690 0
-691 9 0
692 -964 -689 0
-692 964 0
-692 689 0
693 -26 -699 0
-693 26 0
-693 699 0
694 -693 -717 0
-694 693 0
-694 717 0
695 -965 -692 0
-695 965 0
-695 692 0
696 -16 -707 0
-696 16 0
-696 707 0
697 -696 -807 0
-697 696 0
-697 807 0
698 -966 -695 0
-698 966 0
-698 695 0
-699 -2 0
699 2 0
-700 -1 0
700 1 0
-701 -5 0
701 5 0
-702 -6 0
702 6 0
-703 -54 0
703 54 0
-704 -52 0
704 52 0
-705 -7 0
705 7 0
-706 -57 0
706 57 0
-707 -10 0
707 10 0
-708 -9 0
708 9 0
-709 -11 0
709 11 0
-710 -60 0
710 60 0
-711 -12 0
711 12 0
-712 -8 0
712 8 0
-713 -13 0
713 13 0
-714 -63 0
714 63 0
-715 -14 0
715 14 0
-716 -66 0
716 66 0
-717 -3 0
717 3 0
-718 -69 0
718 69 0
-719 -17 0
719 17 0
-720 -16 0
720 16 0
-721 -18 0
721 18 0
-722 -72 0
722 72 0
-723 -20 0
723 20 0
-724 -75 0
724 75 0
-725 -15 0
725 15 0
-726 -78 0
726 78 0
-727 -81 0
727 81 0
-728 -84 0
728 84 0
-729 -24 0
729 24 0
-730 -25 0
730 25 0
-731 -87 0
731 87 0
-732 -26 0
732 26 0
-733 -27 0
733 27 0
-734 -90 0
734 90 0
-735 -28 0
735 28 0
-736 -93 0
736 93 0
-737 -30 0
737 30 0
-738 -96 0
738 96 0
-739 -31 0
739 31 0
-740 -99 0
740 99 0
-741 -32 0
741 32 0
-742 -4 0
742 4 0
-743 -102 0
743 102 0
-744 -105 0
744 105 0
-745 -35 0
745 35 0
-746 -34 0
746 34 0
-747 -108 0
747 108 0
-748 -111 0
748 111 0
-749 -37 0
749 37 0
-750 -114 0
750 114 0
-751 -36 0
751 36 0
-752 -19 0
752 19 0
-753 -117 0
753 117 0
-754 -120 0
754 120 0
-755 -38 0
755 38 0
-756 -123 0
756 123 0
-757 -39 0
757 39 0
-758 -126 0
758 126 0
-759 -129 0
759 129 0
-760 -41 0
760 41 0
-761 -132 0
761 132 0
-762 -135 0
762 135 0
-763 -138 0
763 138 0
-764 -141 0
764 141 0
-765 -144 0
765 144 0
-766 -43 0
766 43 0
-767 -147 0
767 147 0
-768 -29 0
768 29 0
-769 -150 0
769 150 0
-770 -153 0
770 153 0
-771 -156 0
771 156 0
-772 -45 0
772 45 0
-773 -159 0
773 159 0
-774 -162 0
774 162 0
-775 -165 0
775 165 0
-776 -168 0
776 168 0
-777 -171 0
777 171 0
-778 -47 0
778 47 0
-779 -174 0
779 174 0
-780 -22 0
780 22 0
-781 -177 0
781 177 0
-782 -42 0
782 42 0
-783 -180 0
783 180 0
-784 -183 0
784 183 0
-785 -186 0
785 186 0
-786 -48 0
786 48 0
-787 -189 0
787 189 0
-788 -192 0
788 192 0
-789 -49 0
789 49 0
-790 -195 0
790 195 0
-791 -198 0
791 198 0
-792 -33 0
792 33 0
-793 -201 0
793 201 0
-794 -44 0
794 44 0
-795 -204 0
795 204 0
-796 -207 0
796 207 0
-797 -210 0
797 210 0
-798 -213 0
798 213 0
-799 -216 0
799 216 0
-800 -219 0
800 219 0
-801 -222 0
801 222 0
-802 -225 0
802 225 0
-803 -228 0
803 228 0
-804 -231 0
804 231 0
-805 -233 0
805 233 0
-806 -236 0
806 236 0
-807 -21 0
807 21 0
-808 -239 0
808 239 0
-809 -242 0
809 242 0
-810 -245 0
810 245 0
-811 -248 0
811 248 0
-812 -251 0
812 251 0
-813 -254 0
813 254 0
-814 -257 0
814 257 0
-815 -23 0
815 23 0
-816 -260 0
816 260 0
-817 -263 0
817 263 0
-818 -266 0
818 266 0
-819 -269 0
819 269 0
-820 -272 0
820 272 0
-821 -275 0
821 275 0
-822 -278 0
822 278 0
-823 -281 0
823 281 0
-824 -284 0
824 284 0
-825 -287 0
825 287 0
-826 -290 0
826 290 0
-827 -293 0
827 293 0
-828 -296 0
828 296 0
-829 -299 0
829 299 0
-830 -302 0
830 302 0
-831 -305 0
831 305 0
-832 -308 0
832 308 0
-833 -40 0
833 40 0
-834 -311 0
834 311 0
-835 -314 0
835 314 0
-836 -317 0
836 317 0
-837 -320 0
837 320 0
-838 -323 0
838 323 0
-839 -326 0
839 326 0
-840 -329 0
840 329 0
-841 -332 0
841 332 0
-842 -335 0
842 335 0
-843 -338 0
843 338 0
-844 -341 0
844 341 0
-845 -344 0
845 344 0
-846 -347 0
846 347 0
-847 -350 0
847 350 0
-848 -353 0
848 353 0
-849 -356 0
849 356 0
-850 -359 0
850 359 0
-851 -362 0
851 362 0
-852 -365 0
852 365 0
-853 -46 0
853 46 0
-854 -368 0
854 368 0
-855 -371 0
855 371 0
-856 -374 0
856 374 0
-857 -377 0
857 377 0
-858 -380 0
858 380 0
-859 -382 0
859 382 0
-860 -385 0
860 385 0
-861 -388 0
861 388 0
-862 -391 0
862 391 0
-863 -394 0
863 394 0
-864 -397 0
864 397 0
-865 -400 0
865 400 0
-866 -403 0
866 403 0
-867 -406 0
867 406 0
-868 -409 0
868 409 0
-869 -412 0
869 412 0
-870 -415 0
870 415 0
-871 -418 0
871 418 0
-872 -421 0
872 421 0
-873 -424 0
873 424 0
-874 -426 0
874 426 0
-875 -429 0
875 429 0
-876 -50 0
876 50 0
-877 -432 0
877 432 0
-878 -435 0
878 435 0
-879 -438 0
879 438 0
-880 -441 0
880 441 0
-881 -444 0
881 444 0
-882 -446 0
882 446 0
-883 -449 0
883 449 0
-884 -452 0
884 452 0
-885 -455 0
885 455 0
-886 -458 0
886 458 0
-887 -461 0
887 461 0
-888 -464 0
888 464 0
-889 -467 0
889 467 0
-890 -470 0
890 470 0
-891 -473 0
891 473 0
-892 -476 0
892 476 0
-893 -479 0
893 479 0
-894 -482 0
894 482 0
-895 -485 0
895 485 0
-896 -488 0
896 488 0
-897 -491 0
897 491 0
-898 -494 0
898 494 0
-899 -497 0
899 497 0
-900 -500 0
900 500 0
-901 -503 0
901 503 0
-902 -506 0
902 506 0
-903 -509 0
903 509 0
-904 -512 0
904 512 0
-905 -515 0
905 515 0
-906 -518 0
906 518 0
-907 -521 0
907 521 0
-908 -524 0
908 524 0
-909 -527 0
909 527 0
-910 -530 0
910 530 0
-911 -533 0
911 533 0
-912 -536 0
912 536 0
-913 -539 0
913 539 0
-914 -541 0
914 541 0
-915 -544 0
915 544 0
-916 -547 0
916 547 0
-917 -550 0
917 550 0
-918 -553 0
918 553 0
-919 -556 0
919 556 0
-920 -559 0
920 559 0
-921 -562 0
921 562 0
-922 -565 0
922 565 0
-923 -568 0
923 568 0
-924 -571 0
924 571 0
-925 -574 0
925 574 0
-926 -577 0
926 577 0
-927 -580 0
927 580 0
-928 -583 0
928 583 0
-929 -586 0
929 586 0
-930 -589 0
930 589 0
-931 -592 0
931 592 0
-932 -595 0
932 595 0
-933 -598 0
933 598 0
-934 -601 0
934 601 0
-935 -604 0
935 604 0
-936 -607 0
936 607 0
-937 -610 0
937 610 0
-938 -613 0
938 613 0
-939 -616 0
939 616 0
-940 -619 0
940 619 0
-941 -622 0
941 622 0
-942 -625 0
942 625 0
-943 -628 0
943 628 0
-944 -631 0
944 631 0
-945 -634 0
945 634 0
-946 -637 0
946 637 0
-947 -640 0
947 640 0
-948 -643 0
948 643 0
-949 -646 0
949 646 0
-950 -649 0
950 649 0
-951 -652 0
951 652 0
-952 -655 0
952 655 0
-953 -658 0
953 658 0
-954 -661 0
954 661 0
-955 -664 0
955 664 0
-956 -667 0
956 667 0
-957 -670 0
957 670 0
-958 -673 0
958 673 0
-959 -676 0
959 676 0
-960 -679 0
960 679 0
-961 -682 0
961 682 0
-962 -685 0
962 685 0
-963 -688 0
963 688 0
-964 -691 0
964 691 0
-965 -694 0
965 694 0
-966 -697 0
966 697 0
698 0
